DIMENSION :6
NODE_COORD_SECTION
1 -53.84238365000278 -37.40792269400508
2 16.91774037386331 -24.567996246130903
3 92.7622464024609 50.636474323459225
4 -37.96910082996641 50.70042130316753
5 -94.11238651668286 94.52115224806909
6 60.94436400531734 -62.77202183487953
EOF
